(set-info :origin "Horn problem converted to SMT-LIB2 using Eldarica (https://github.com/uuverifiers/eldarica)")
(set-logic HORN)
(declare-fun INV_MAIN_23 (Int Int Int) Bool)
(declare-fun INV_MAIN_42 (Int Int Int Int Int) Bool)
(assert (forall ((A Int) (B Int) (C Int) (D Int) (E Int))(=> (and (and (and (= (* (- 1) C) 0) (not (>= (+ D (- 1)) 0))) (= E A)) (= D B)) (INV_MAIN_23 A B C))))
(assert (forall ((A Int) (B Int) (C Int) (D Int) (E Int) (F Int))(=> (and (and (and (and (= (* (- 1) B) 0) (= (* (- 1) E) 0)) (>= (+ F (- 1)) 0)) (= A C)) (= F D)) (INV_MAIN_42 A B C D E))))
(assert (forall ((A Int) (B Int) (C Int)) (not (and (and (not (= (* (- 1) A) 0)) (not (>= (+ B (- 1)) 0))) (INV_MAIN_23 B C A)))))
(assert (forall ((A Int) (B Int) (C Int) (D Int) (E Int))(=> (and (and (and (and (= (+ D (- 1)) A) (= (+ E 1) C)) (>= (+ B (- 1)) 0)) (>= (+ D (- 1)) 0)) (INV_MAIN_23 D B E)) (INV_MAIN_23 A B C))))
(assert (forall ((A Int) (B Int) (C Int) (D Int))(=> (and (and (and (= (+ D (- 1)) A) (not (>= (+ B (- 1)) 0))) (>= (+ D (- 1)) 0)) (INV_MAIN_23 D B C)) (INV_MAIN_23 A B C))))
(assert (forall ((A Int) (B Int) (C Int) (D Int) (E Int)) (not (and (and (and (not (= A B)) (not (>= (+ C (- 1)) 0))) (not (>= (+ D (- 1)) 0))) (INV_MAIN_42 D A C E B)))))
(assert (forall ((A Int) (B Int) (C Int) (D Int) (E Int) (F Int) (G Int) (H Int))(=> (and (and (and (and (and (and (= (+ F (- 1)) A) (= (+ G 1) B)) (= (+ H (- 1)) C)) (not (>= (+ D (- 1)) 0))) (>= (+ H (- 1)) 0)) (>= (+ F (- 1)) 0)) (INV_MAIN_42 F G H D E)) (INV_MAIN_42 A B C D E))))
(assert (forall ((A Int) (B Int) (C Int) (D Int) (E Int) (F Int) (G Int) (H Int) (I Int))(=> (and (and (and (and (and (and (and (= (+ F (- 1)) A) (= (+ G 1) B)) (= (+ H (- 1)) C)) (= (+ I 1) E)) (>= (+ D (- 1)) 0)) (>= (+ H (- 1)) 0)) (>= (+ F (- 1)) 0)) (INV_MAIN_42 F G H D I)) (INV_MAIN_42 A B C D E))))
(assert (forall ((A Int) (B Int) (C Int) (D Int) (E Int) (F Int) (G Int))(=> (and (and (and (and (= (+ F (- 1)) A) (= (+ G 1) B)) (not (>= (+ C (- 1)) 0))) (>= (+ F (- 1)) 0)) (INV_MAIN_42 F G C D E)) (INV_MAIN_42 A B C D E))))
(assert (forall ((A Int) (B Int) (C Int) (D Int) (E Int) (F Int))(=> (and (and (and (and (= (+ F (- 1)) C) (not (>= (+ D (- 1)) 0))) (not (>= (+ A (- 1)) 0))) (>= (+ F (- 1)) 0)) (INV_MAIN_42 A B F D E)) (INV_MAIN_42 A B C D E))))
(assert (forall ((A Int) (B Int) (C Int) (D Int) (E Int) (F Int) (G Int))(=> (and (and (and (and (and (= (+ F (- 1)) C) (= (+ G 1) E)) (>= (+ D (- 1)) 0)) (not (>= (+ A (- 1)) 0))) (>= (+ F (- 1)) 0)) (INV_MAIN_42 A B F D G)) (INV_MAIN_42 A B C D E))))
(check-sat)
